(declare-const a Real)
(declare-const b Real)
(declare-const c Real)
(assert (= (+ a b c) 3))
(assert (> a 0))
(assert (> b 0))
(assert (> c 0))
(assert (> (+ (pow a 2) (pow b 2) (* -1 a b)) 0))
(assert (> (+ (pow b 2) (pow c 2) (* -1 b c)) 0))
(assert (> (+ (pow a 2) (pow c 2) (* -1 a c)) 0))
(assert (not (<= (+ (* -4 a) (* -4 b) (* -4 c) (* 3 (pow (* (pow (+ (* 1 (pow 2 -1)) 6) -1) (+ 6 (* (/ 1 3) (pow a 2)) (* (/ 1 3) (pow b 2)) (* (/ 1 3) (pow c 2)) (* (/ -1 6) a b) (* (/ -1 6) a c) (* (/ -1 6) b c))) (+ (* 1 (pow 2 -1)) 6))) (* 9 (pow (* a b c) (pow 3 -1)))) 0)))
(check-sat)
(get-model)
(exit)